NAME : problem.790839.tour
COMMENT : Length = 790839
COMMENT : Found by LKH-3 [Keld Helsgaun] Tue Jul 23 11:17:11 2024
TYPE : TOUR
DIMENSION : 54
TOUR_SECTION
1
17
42
49
9
19
31
51
27
6
10
30
46
20
35
24
52
16
50
39
43
15
44
37
26
13
32
5
3
2
18
28
53
23
11
8
41
25
45
7
4
34
54
33
47
22
29
36
12
48
14
40
21
38
-1
EOF
